99
559
76
0 3
0 44
0 50
0 51
0 74
1 9
1 13
1 16
1 18
1 20
1 28
1 38
2 4
2 7
2 14
2 15
2 17
2 41
2 48
2 49
2 53
2 54
2 70
2 85
3 8
3 12
3 19
3 24
3 36
3 42
3 44
3 50
3 51
3 74
4 7
4 14
4 15
4 17
4 41
4 48
4 49
4 56
5 7
5 15
5 32
6 9
6 22
6 27
6 64
6 76
6 90
7 14
7 15
7 17
7 32
8 9
8 12
8 19
8 24
8 36
8 42
8 51
8 66
8 72
8 94
8 95
8 96
9 13
9 16
9 18
9 20
9 22
9 27
9 35
9 37
9 43
9 63
9 64
9 76
9 90
9 94
9 95
9 96
10 14
10 17
10 25
10 31
10 58
10 80
10 89
11 12
11 15
11 19
11 59
12 15
12 19
12 51
12 59
13 16
13 18
13 20
13 32
13 34
13 36
13 60
13 83
13 92
13 93
14 15
14 17
14 25
14 31
14 58
14 80
14 89
15 17
15 19
15 32
15 59
16 18
16 20
16 30
16 40
16 71
17 25
17 31
17 41
17 48
17 49
17 53
17 54
17 58
17 70
17 80
17 85
17 89
18 20
18 35
18 37
18 43
18 63
18 97
19 24
19 36
19 42
19 51
19 59
19 66
19 72
20 35
20 37
20 43
20 63
21 22
21 27
21 32
21 45
21 64
21 73
21 76
21 90
22 27
22 32
22 45
22 64
22 73
22 76
22 90
23 26
23 28
23 29
23 38
23 41
23 67
23 68
23 71
23 82
23 93
24 36
24 42
25 30
25 31
25 33
25 40
25 43
25 58
25 59
25 67
25 71
25 75
25 80
25 81
25 89
25 91
26 28
26 29
26 38
26 41
26 44
26 50
26 51
26 57
26 68
26 74
26 79
26 93
27 32
27 34
27 36
27 42
27 45
27 64
27 73
27 76
27 90
27 92
28 29
28 38
28 41
28 44
28 50
28 51
28 57
28 68
28 74
28 79
28 93
29 68
29 93
30 40
30 43
30 67
30 71
31 33
31 58
31 59
31 75
31 80
31 81
31 89
31 91
32 34
32 36
32 42
32 45
32 60
32 64
32 73
32 76
32 83
32 90
32 92
32 93
33 58
33 59
33 75
33 80
33 81
33 89
33 91
34 36
34 42
34 45
34 60
34 83
34 92
34 93
35 37
35 43
35 63
35 82
35 88
35 90
35 98
36 42
36 45
36 60
36 83
36 92
36 93
37 43
37 63
38 41
38 44
38 50
38 51
38 57
38 68
38 74
38 79
39 40
39 42
39 43
39 45
39 46
40 42
40 43
40 45
40 46
40 67
40 71
41 48
41 49
41 52
41 55
41 62
41 68
42 43
42 45
42 46
42 69
42 70
42 92
43 45
43 46
43 63
43 67
43 71
44 50
44 51
44 57
44 74
44 79
45 46
45 47
45 64
45 73
45 76
45 86
45 90
45 92
45 94
46 47
46 86
46 94
47 86
47 94
48 49
49 52
49 55
49 62
50 51
50 57
50 69
50 74
50 77
50 79
50 86
50 94
50 95
51 57
51 69
51 74
51 77
51 79
51 86
51 94
51 95
52 55
52 62
52 64
52 65
52 67
52 68
52 71
52 73
52 76
52 82
52 90
52 97
53 54
53 58
53 59
53 60
53 61
53 63
53 70
53 85
54 70
54 85
55 62
55 73
55 76
55 97
57 62
57 69
57 74
57 77
57 79
57 86
57 94
57 95
58 59
58 60
58 61
58 63
58 75
58 80
58 81
58 85
58 89
58 91
59 60
59 61
59 63
59 75
59 80
59 81
59 85
59 89
59 91
60 61
60 63
60 83
60 85
60 92
60 93
61 63
61 85
63 85
64 65
64 67
64 68
64 71
64 73
64 76
64 82
64 90
65 67
65 68
65 71
65 73
65 76
65 82
65 90
66 72
66 75
66 80
66 81
66 83
66 84
66 89
66 91
66 92
66 93
67 68
67 71
67 73
67 76
67 82
67 90
68 71
68 73
68 76
68 82
68 90
68 93
69 70
69 74
69 77
69 79
69 86
69 94
69 95
70 74
70 77
70 85
71 73
71 76
71 82
71 90
73 76
73 82
73 90
73 97
74 77
74 79
74 86
74 94
74 95
75 78
75 80
75 81
75 83
75 84
75 89
75 91
75 92
75 93
76 82
76 90
76 97
77 79
77 86
77 94
77 95
79 85
79 86
79 87
79 94
79 95
79 96
80 81
80 82
80 83
80 84
80 88
80 89
80 91
80 92
80 93
81 82
81 83
81 84
81 88
81 89
81 91
81 92
81 93
82 83
82 84
82 88
82 90
82 98
83 84
83 88
83 89
83 91
83 92
83 93
84 88
84 89
84 91
84 92
84 93
85 86
85 87
85 94
85 95
85 96
86 87
86 94
86 95
86 96
87 94
87 95
87 96
88 90
88 98
89 91
89 92
89 93
90 98
91 92
91 93
92 93
94 95
94 96
95 96
0
1
2
3
4
5
6
7
8 9
10
11
12
13
14 15
16 17
18
19 20
21
22
23
24
25 26
27 28
29
30
31 32
33
34
35 36
37
38
39
40
41 42
43
44 45
46
47
48
49
50
51 52
53
54
55
56
57 58
59
60
61
62
63
64
65
66 67
68 69
70 71
72
73 74
75 76
77
78
79 80
81
82 83
84 85
86
87
88
89
90 91
92
93 94
95
96
97 98
